NAME : amz1358.126183_126183.tour
COMMENT : Cost = 126183_126183
COMMENT : Found by LKH-AMZ [Keld Helsgaun] Sun May 11 13:09:17 2025
COMMENT : TW viol.: 0 #: 0
TYPE : TOUR
DIMENSION : 153
TOUR_SECTION
148
1
90
134
16
32
120
52
100
149
28
76
23
119
126
29
138
73
33
146
57
54
147
53
8
67
7
144
63
101
114
61
40
71
55
44
136
62
75
34
56
108
46
20
43
130
89
4
140
47
94
42
58
72
74
64
36
118
49
35
95
2
69
99
123
60
68
30
137
139
151
116
18
83
25
12
152
51
31
135
79
41
87
132
88
6
93
27
102
70
153
24
117
143
9
37
121
15
3
124
113
84
125
26
48
107
86
19
5
10
145
11
104
141
91
77
105
92
106
66
13
39
133
142
131
97
65
127
150
129
98
122
38
22
115
45
14
85
103
80
82
111
21
109
50
110
17
96
59
128
81
78
112
-1
EOF
